
Gurobi 6.5.2 (win64) logging started 07/24/16 17:26:45


Gurobi 6.5.2 (win64) logging started 07/24/16 17:26:45

Optimize a model with 491 rows, 133 columns and 1209 nonzeros
Coefficient statistics:
  Matrix range    [1e+00, 4e+02]
  Objective range [2e+00, 4e+02]
  Bounds range    [1e+00, 1e+00]
  RHS range       [1e+00, 1e+03]
Presolve removed 447 rows and 58 columns
Presolve time: 0.00s
Presolved: 44 rows, 75 columns, 261 nonzeros
Variable types: 0 continuous, 75 integer (75 binary)

Root relaxation: objective 1.352000e+03, 40 iterations, 0.00 seconds

    Nodes    |    Current Node    |     Objective Bounds      |     Work
 Expl Unexpl |  Obj  Depth IntInf | Incumbent    BestBd   Gap | It/Node Time

*    0     0               0    1352.0000000 1352.00000  0.00%     -    0s

Explored 0 nodes (40 simplex iterations) in 0.00 seconds
Thread count was 8 (of 8 available processors)

Optimal solution found (tolerance 1.00e-04)
Best objective 1.352000000000e+03, best bound 1.352000000000e+03, gap 0.0%

Wrote requested result file 'H1\instance10\\Results10SG_Sol2.lp'

